% Example data: 100 chunks to distribute across 71 shards
num_chunks = 100;

chunk_sizes = [
    % Sizes in bytes (example data)
    1024, 2048, 1536, 3072, 2560, 1792, 2304, 1280, 3584, 2816,
    1408, 2688, 1920, 3200, 2432, 1664, 2944, 1152, 3456, 2176,
    1536, 2816, 2048, 3328, 2560, 1792, 3072, 1280, 3712, 2304,
    1408, 2688, 1920, 3200, 2432, 1664, 2944, 1152, 3456, 2176,
    1536, 2816, 2048, 3328, 2560, 1792, 3072, 1280, 3712, 2304,
    1408, 2688, 1920, 3200, 2432, 1664, 2944, 1152, 3456, 2176,
    1536, 2816, 2048, 3328, 2560, 1792, 3072, 1280, 3712, 2304,
    1408, 2688, 1920, 3200, 2432, 1664, 2944, 1152, 3456, 2176,
    1536, 2816, 2048, 3328, 2560, 1792, 3072, 1280, 3712, 2304,
    1408, 2688, 1920, 3200, 2432, 1664, 2944, 1152, 3456, 2176
];
